webassembly/ejemplos_dzn/folder6_json_80.dzn
TERM = { '.', 's(5)', 's(2)', 's(4)', 'in_1', 's(1)', 's(0)', 's(3)', 'in_0'};
null = '.';
s = 6;
n = 7;
ndeps = 0;
max_registers_sz = 3;
NR = 0;
registers = [| |];
dependencies = [| |];
GET_ENUM = { GET1, GET2, GET3};
SET_ENUM = { SET1, SET2, SET3};
TEE_ENUM = { TEE1, TEE2, TEE3};
N = 6;
OP = { 'i32.add_0', 'i32.add_1', 'i32.const_0', 'i32.load_2', 'i32.load_3', 'i32.load_4' };
in_ops = [2, 2, 0, 1, 1, 1 ];
out_ops = [1, 1, 1, 1, 1, 1 ];
in1 = ['in_0', 's(3)', '.', 's(5)', 's(1)', 's(2)' ];
in2 = ['in_1', 's(0)', '.', '.', '.', '.' ];
in3 = ['.', '.', '.', '.', '.', '.' ];
out1 = ['s(0)', 's(4)', 's(5)', 's(1)', 's(2)', 's(3)' ];
out2 = ['.', '.', '.', '.', '.', '.' ];
out3 = ['.', '.', '.', '.', '.', '.' ];
comm = [true, true, false, false, false, false ];
gas = [1, 1, 1, 1, 1, 1 ];
sz = [1, 1, 1, 1, 1, 1 ];
stor = [false, false, false, false, false, false ];
lb = [ 1, 1, 1, 1, 1, 1 ];
ub = [ 6, 6, 6, 6, 6, 6 ];
startstack = [ 'in_0', 'in_1', null, null, null, null, null ];
endstack = [ 's(4)', null, null, null, null, null, null ];
